cost: 708.24
Route 1:           0    5   47   25   11   32    6   36    9    1   46   31   29   16   40    0
Route 2:           0   26   17    2   42   49   43   23   10   39   33   21   35   50   20   18    0
Route 3:           0   27   22   37   30   44   38    3    4   14   12   48   41    7   19   34    0
Route 4:           0   45   24   13   15    8   28    0
